NAME : A-n38-k5
COMMENT : (Augerat et al, Min no of trucks: 5, Optimal value: 730)
TYPE : CVRP
DIMENSION : 38
EDGE_WEIGHT_TYPE : EUC_2D 
CAPACITY : 100
NODE_COORD_SECTION 
 1 69 63
 2 3 35
 3 71 79
 4 1 47
 5 11 15
 6 87 23
 7 37 33
 8 87 29
 9 35 81
 10 55 71
 11 41 51
 12 93 9
 13 11 49
 14 75 89
 15 75 69
 16 97 95
 17 15 13
 18 63 95
 19 47 41
 20 45 41
 21 89 43
 22 45 59
 23 95 23
 24 19 83
 25 71 69
 26 27 19
 27 17 57
 28 93 15
 29 59 29
 30 35 39
 31 33 51
 32 61 21
 33 89 53
 34 33 85
 35 37 37
 36 21 91
 37 67 95
 38 61 15
DEMAND_SECTION 
1 0 
2 12 
3 5 
4 8 
5 12 
6 18 
7 12 
8 11 
9 19 
10 23 
11 8 
12 25 
13 1 
14 5 
15 17 
16 13 
17 9 
18 13 
19 19 
20 5 
21 26 
22 9 
23 20 
24 21 
25 8 
26 12 
27 13 
28 12 
29 4 
30 19 
31 25 
32 7 
33 3 
34 2 
35 24 
36 13 
37 14 
38 14 
DEPOT_SECTION 
 1  
 -1  
EOF 
